row=8;
column=8;
Board=[|1,7,5,6,3,4,8,2|8,2,6,7,1,3,4,5|7,4,3,8,6,2,5,1|4,5,7,1,8,6,2,3|5,6,2,3,4,1,7,8|6,3,4,2,5,8,1,7|3,1,8,5,2,7,6,4|2,8,1,4,7,5,3,6|];
horizontal=[|0,1,0,1,-1,0,1|1,0,0,-1,0,0,0|1,1,0,1,1,0,1|0,0,1,0,1,1,0|0,1,0,0,1,0,-1|1,0,1,0,0,1,0|1,0,1,1,0,1,1|0,1,0,0,1,1,0|];
vertical=[|0,1,0,0,1,1,1,0|1,0,1,0,-1,-1,0,1|1,0,0,1,0,0,1,0|0,0,1,0,1,1,0,0|0,1,0,1,0,0,1,1|1,1,0,0,1,1,0,1|1,0,1,1,0,1,1,0|];
